proyfinal/src/viki/013/experimentInOfficeAgust.take6.output/31812a16-9349-456b-aa4f-09ecc40bcfd7.als.out
Reading from standard input... Use '--help' for help.
============================[ Problem Statistics ]=============================
|                                                                             |
|  Number of variables:         87638                                         |
|  Number of clauses:          161767                                         |
|  Parse time:                   0.04 s                                       |
|                                                                             |
============================[ Search Statistics ]==============================
| Conflicts |          ORIGINAL         |          LEARNT          | Progress |
|           |    Vars  Clauses Literals |    Limit  Clauses Lit/Cl |          |
===============================================================================
|       100 |   63009   107513   268792 |    39421      100     10 | 28.103 % |
|       250 |   63009   107513   268792 |    43363      250     35 | 28.103 % |
|       475 |   62991   107439   268621 |    47699      474     54 | 28.124 % |
|       812 |   62991   107439   268621 |    52469      811     52 | 28.124 % |
|      1318 |   62990   107395   268531 |    57716     1314     58 | 28.125 % |
|      2077 |   62990   107395   268531 |    63488     2073     67 | 28.125 % |
|      3216 |   62972   107321   268360 |    69837     2886     75 | 28.146 % |
|      4924 |   62972   107321   268360 |    76821     4594     75 | 28.146 % |
|      7486 |   62946   107213   268113 |    84503     7154     77 | 28.175 % |
===============================================================================
restarts              : 44
conflicts             : 9981           (5637 /sec)
decisions             : 31848          (0.00 % random) (17987 /sec)
propagations          : 16602076       (9376716 /sec)
conflict literals     : 753296         (61.57 % deleted)
Memory used           : 28.46 MB
CPU time              : 1.77056 s

UNSATISFIABLE
